p wcnf 116 58 59 
1 -112 -69 0 
1 96 -71 0 
1 -91 -19 0 
1 -10 -37 0 
1 -77 115 0 
1 -16 29 0 
1 42 114 0 
1 -9 19 0 
1 53 98 0 
1 79 -12 0 
1 -57 73 0 
1 -109 33 0 
1 -61 63 0 
1 -21 32 0 
1 18 30 0 
1 -45 -89 0 
1 -68 -112 0 
1 67 105 0 
1 39 20 0 
1 -81 -46 0 
1 83 68 0 
1 -80 -64 0 
1 110 -108 0 
1 100 -93 0 
1 34 -74 0 
1 31 -42 0 
1 -9 82 0 
1 -91 82 0 
1 -37 -106 0 
1 84 109 0 
1 9 5 0 
1 57 -3 0 
1 -102 -91 0 
1 -113 -94 0 
1 54 -7 0 
1 -48 -104 0 
1 57 75 0 
1 29 113 0 
1 -65 -60 0 
1 -50 58 0 
1 -11 34 0 
1 53 -36 0 
1 36 115 0 
1 -71 61 0 
1 57 -18 0 
1 35 -22 0 
1 -90 -35 0 
1 -23 105 0 
1 -10 -93 0 
1 -85 -7 0 
1 -99 88 0 
1 76 10 0 
1 82 -35 0 
1 55 -24 0 
1 -78 79 0 
1 67 -33 0 
1 -51 57 0 
1 -94 18 0 
